(set-logic QF_S)
(declare-fun var0 () String)
(declare-fun var1 () Int)
(declare-fun var2 () Int)
(declare-fun var3 () String)
(declare-fun var4 () Int)
(declare-fun var5 () String)
(declare-fun var6 () String)
(declare-fun var7 () Int)
(declare-fun var8 () Bool)
(assert (str.contains (str.substr var0 var1 var2) (str.at var3 var4)))
(assert (not (<= (str.indexof var5 var6 var7) (str.to.int var6))))
(assert (<= var4 var1))
(assert (not var8))
(check-sat)